\ Model QCP
\ LP format - for model browsing. Use MPS format to capture full model detail.
Minimize
  z + 1.27 y
Subject To
 Cut_0: z + [ ] >= 1123
 Cut_1: z + [ 1.555555555555556 y ^2 ] >= 1482.333333333333
 Cut_2: z + [ 0.7777777777777777 y ^2 ] >= 1330.666666666667
Bounds
 1123 <= z <= 1179
 13.96424004376894 <= y <= 16.34013463836819
End
